(declare-const X String)
; www\x2Eserverlogic3\x2Ecom
(assert (not (str.in.re X (str.to.re "www.serverlogic3.com\x0a"))))
; ^(((0?[1-9]|[12]\d|3[01])[\.\-\/](0?[13578]|1[02])[\.\-\/]((1[6-9]|[2-9]\d)?\d{2}|\d))|((0?[1-9]|[12]\d|30)[\.\-\/](0?[13456789]|1[012])[\.\-\/]((1[6-9]|[2-9]\d)?\d{2}|\d))|((0?[1-9]|1\d|2[0-8])[\.\-\/]0?2[\.\-\/]((1[6-9]|[2-9]\d)?\d{2}|\d))|(29[\.\-\/]0?2[\.\-\/]((1[6-9]|[2-9]\d)?(0[48]|[2468][048]|[13579][26])|((16|[2468][048]|[3579][26])00)|00|[048])))$
(assert (str.in.re X (re.++ (re.union (re.++ (re.union (re.++ (re.opt (str.to.re "0")) (re.range "1" "9")) (re.++ (re.union (str.to.re "1") (str.to.re "2")) (re.range "0" "9")) (re.++ (str.to.re "3") (re.union (str.to.re "0") (str.to.re "1")))) (re.union (str.to.re ".") (str.to.re "-") (str.to.re "/")) (re.union (re.++ (re.opt (str.to.re "0")) (re.union (str.to.re "1") (str.to.re "3") (str.to.re "5") (str.to.re "7") (str.to.re "8"))) (re.++ (str.to.re "1") (re.union (str.to.re "0") (str.to.re "2")))) (re.union (str.to.re ".") (str.to.re "-") (str.to.re "/")) (re.union (re.++ (re.opt (re.union (re.++ (str.to.re "1") (re.range "6" "9")) (re.++ (re.range "2" "9") (re.range "0" "9")))) ((_ re.loop 2 2) (re.range "0" "9"))) (re.range "0" "9"))) (re.++ (re.union (re.++ (re.opt (str.to.re "0")) (re.range "1" "9")) (re.++ (re.union (str.to.re "1") (str.to.re "2")) (re.range "0" "9")) (str.to.re "30")) (re.union (str.to.re ".") (str.to.re "-") (str.to.re "/")) (re.union (re.++ (re.opt (str.to.re "0")) (re.union (str.to.re "1") (str.to.re "3") (str.to.re "4") (str.to.re "5") (str.to.re "6") (str.to.re "7") (str.to.re "8") (str.to.re "9"))) (re.++ (str.to.re "1") (re.union (str.to.re "0") (str.to.re "1") (str.to.re "2")))) (re.union (str.to.re ".") (str.to.re "-") (str.to.re "/")) (re.union (re.++ (re.opt (re.union (re.++ (str.to.re "1") (re.range "6" "9")) (re.++ (re.range "2" "9") (re.range "0" "9")))) ((_ re.loop 2 2) (re.range "0" "9"))) (re.range "0" "9"))) (re.++ (re.union (re.++ (re.opt (str.to.re "0")) (re.range "1" "9")) (re.++ (str.to.re "1") (re.range "0" "9")) (re.++ (str.to.re "2") (re.range "0" "8"))) (re.union (str.to.re ".") (str.to.re "-") (str.to.re "/")) (re.opt (str.to.re "0")) (str.to.re "2") (re.union (str.to.re ".") (str.to.re "-") (str.to.re "/")) (re.union (re.++ (re.opt (re.union (re.++ (str.to.re "1") (re.range "6" "9")) (re.++ (re.range "2" "9") (re.range "0" "9")))) ((_ re.loop 2 2) (re.range "0" "9"))) (re.range "0" "9"))) (re.++ (str.to.re "29") (re.union (str.to.re ".") (str.to.re "-") (str.to.re "/")) (re.opt (str.to.re "0")) (str.to.re "2") (re.union (str.to.re ".") (str.to.re "-") (str.to.re "/")) (re.union (re.++ (re.opt (re.union (re.++ (str.to.re "1") (re.range "6" "9")) (re.++ (re.range "2" "9") (re.range "0" "9")))) (re.union (re.++ (str.to.re "0") (re.union (str.to.re "4") (str.to.re "8"))) (re.++ (re.union (str.to.re "2") (str.to.re "4") (str.to.re "6") (str.to.re "8")) (re.union (str.to.re "0") (str.to.re "4") (str.to.re "8"))) (re.++ (re.union (str.to.re "1") (str.to.re "3") (str.to.re "5") (str.to.re "7") (str.to.re "9")) (re.union (str.to.re "2") (str.to.re "6"))))) (re.++ (re.union (str.to.re "16") (re.++ (re.union (str.to.re "2") (str.to.re "4") (str.to.re "6") (str.to.re "8")) (re.union (str.to.re "0") (str.to.re "4") (str.to.re "8"))) (re.++ (re.union (str.to.re "3") (str.to.re "5") (str.to.re "7") (str.to.re "9")) (re.union (str.to.re "2") (str.to.re "6")))) (str.to.re "00")) (str.to.re "00") (str.to.re "0") (str.to.re "4") (str.to.re "8")))) (str.to.re "\x0a"))))
; Host\x3a\dATTENTION\x3A[^\n\r]*From\x3AUser-Agent\x3A
(assert (not (str.in.re X (re.++ (str.to.re "Host:") (re.range "0" "9") (str.to.re "ATTENTION:") (re.* (re.union (str.to.re "\x0a") (str.to.re "\x0d"))) (str.to.re "From:User-Agent:\x0a")))))
; ([0-9]+:)?[0-9]+\s*(am|pm)|[0-9]+:[0-9]+\s*(am|pm)?
(assert (str.in.re X (re.union (re.++ (re.opt (re.++ (re.+ (re.range "0" "9")) (str.to.re ":"))) (re.+ (re.range "0" "9")) (re.* (re.union (str.to.re " ") (str.to.re "\x09") (str.to.re "\x0a") (str.to.re "\x0c") (str.to.re "\x0d"))) (re.union (str.to.re "am") (str.to.re "pm"))) (re.++ (re.+ (re.range "0" "9")) (str.to.re ":") (re.+ (re.range "0" "9")) (re.* (re.union (str.to.re " ") (str.to.re "\x09") (str.to.re "\x0a") (str.to.re "\x0c") (str.to.re "\x0d"))) (re.opt (re.union (str.to.re "am") (str.to.re "pm"))) (str.to.re "\x0a")))))
(check-sat)
